n = 50;
C = 227;
w = [403,88,208,129,5,114,413,382,97,50,306,331,191,151,227,250,244,251,283,305,333,222,243,480,76,195,334,133,164,175,54,245,414,112,149,122,196,264,177,194,16,456,165,451,28,463,381,3,314,412];
p = [2025,450,1050,655,35,580,2075,1920,495,260,1540,1665,965,765,1145,1260,1230,1265,1425,1535,1675,1120,1225,2410,390,985,1680,675,830,885,280,1235,2080,570,755,620,990,1330,895,980,90,2290,835,2265,150,2325,1915,25,1580,2070];
